; Copyright (c) 2026 The RIINA Authors. All rights reserved.
; Copyright (c) 2026 The RIINA Authors.
; Auto-generated from 02_FORMAL/coq/domains/AuthenticationProtocols.v (102 assertions)
; Generated by scripts/generate-full-stack.py
; Module: AuthenticationProtocols

(set-logic ALL)
(set-option :produce-models true)

; TokenValidation (matches Coq: Inductive TokenValidation)
(declare-datatypes ((TokenValidation 0)) (((TokenValid) (TokenExpired) (TokenInvalid) (TokenRevoked))))

; PasswordSecurity (matches Coq: Record PasswordSecurity)
(declare-datatypes ((PasswordSecurity 0))
  (((mk-password_security (pwd_bcrypt_argon Bool) (pwd_salt_unique Bool) (pwd_min_entropy Bool) (pwd_breach_check Bool)))))

; PBKDF2Config (matches Coq: Record PBKDF2Config)
(declare-datatypes ((PBKDF2Config 0))
  (((mk-pbkdf2_config (pbkdf2_iterations Int) (pbkdf2_salt_bits Int) (pbkdf2_output_bits Int) (pbkdf2_hash_alg Int)))))

; Argon2Config (matches Coq: Record Argon2Config)
(declare-datatypes ((Argon2Config 0))
  (((mk-argon2_config (argon2_time_cost Int) (argon2_memory_cost Int) (argon2_parallelism Int) (argon2_salt_bits Int) (argon2_output_bits Int) (argon2_variant Int)))))

; BcryptConfig (matches Coq: Record BcryptConfig)
(declare-datatypes ((BcryptConfig 0))
  (((mk-bcrypt_config (bcrypt_cost_factor Int) (bcrypt_salt_bits Int) (bcrypt_output_bits Int)))))

; MFASecurity (matches Coq: Record MFASecurity)
(declare-datatypes ((MFASecurity 0))
  (((mk-mfa_security (mfa_totp_support Bool) (mfa_webauthn Bool) (mfa_backup_codes Bool) (mfa_recovery Bool)))))

; TOTPConfig (matches Coq: Record TOTPConfig)
(declare-datatypes ((TOTPConfig 0))
  (((mk-totp_config (totp_secret_bits Int) (totp_digits Int) (totp_period Int) (totp_hash_alg Int) (totp_drift_window Int)))))

; WebAuthnConfig (matches Coq: Record WebAuthnConfig)
(declare-datatypes ((WebAuthnConfig 0))
  (((mk-web_authn_config (webauthn_attestation Int) (webauthn_user_verification Int) (webauthn_resident_key Bool) (webauthn_challenge_bits Int) (webauthn_timeout_ms Int)))))

; SessionSecurity (matches Coq: Record SessionSecurity)
(declare-datatypes ((SessionSecurity 0))
  (((mk-session_security (sess_secure_token Bool) (sess_rotation Bool) (sess_timeout Bool) (sess_binding Bool)))))

; SessionTokenConfig (matches Coq: Record SessionTokenConfig)
(declare-datatypes ((SessionTokenConfig 0))
  (((mk-session_token_config (token_entropy_bits Int) (token_expiry_seconds Int) (token_rotation Bool) (token_binding Bool) (token_secure_flag Bool) (token_httponly_flag Bool) (token_samesite Int)))))

; OAuth2Config (matches Coq: Record OAuth2Config)
(declare-datatypes ((OAuth2Config 0))
  (((mk-o_auth2_config (oauth2_pkce Bool) (oauth2_state_param Bool) (oauth2_nonce_param Bool) (oauth2_token_binding Bool) (oauth2_code_bits Int) (oauth2_code_expiry Int) (oauth2_refresh_rotation Bool)))))

; OIDCConfig (matches Coq: Record OIDCConfig)
(declare-datatypes ((OIDCConfig 0))
  (((mk-oidc_config (oidc_base OAuth2Config) (oidc_id_token_alg Int) (oidc_id_token_expiry Int) (oidc_userinfo_signed Bool) (oidc_claims_verified Bool)))))

; ChallengeConfig (matches Coq: Record ChallengeConfig)
(declare-datatypes ((ChallengeConfig 0))
  (((mk-challenge_config (challenge_bits Int) (challenge_expiry_ms Int) (challenge_single_use Bool) (challenge_bound Bool) (challenge_signed Bool)))))

; NonceTracker (matches Coq: Record NonceTracker)
(declare-datatypes ((NonceTracker 0))
  (((mk-nonce_tracker (nonce_size_bits Int) (nonce_window_size Int) (nonce_timestamp_bound Int) (nonce_counter_mode Bool)))))

; AuthConfig (matches Coq: Record AuthConfig)
(declare-datatypes ((AuthConfig 0))
  (((mk-auth_config (auth_pwd PasswordSecurity) (auth_mfa MFASecurity) (auth_session SessionSecurity)))))

; pbkdf2_secure (matches Coq: Definition pbkdf2_secure)
(define-fun pbkdf2_secure ((cfg PBKDF2Config)) Bool
  true)

; riina_pbkdf2 (matches Coq: Definition riina_pbkdf2)
(define-fun riina_pbkdf2 () PBKDF2Config
  (mk-pbkdf2_config 600000 256 256 0))

; argon2_secure (matches Coq: Definition argon2_secure)
(define-fun argon2_secure ((cfg Argon2Config)) Bool
  true)

; riina_argon2 (matches Coq: Definition riina_argon2)
(define-fun riina_argon2 () Argon2Config
  (mk-argon2_config 4 65536 4 256 256 2))

; bcrypt_secure (matches Coq: Definition bcrypt_secure)
(define-fun bcrypt_secure ((cfg BcryptConfig)) Bool
  true)

; riina_bcrypt (matches Coq: Definition riina_bcrypt)
(define-fun riina_bcrypt () BcryptConfig
  (mk-bcrypt_config 14 128 184))

; totp_secure (matches Coq: Definition totp_secure)
(define-fun totp_secure ((cfg TOTPConfig)) Bool
  true)

; riina_totp (matches Coq: Definition riina_totp)
(define-fun riina_totp () TOTPConfig
  (mk-totp_config 256 6 30 1 1))

; webauthn_secure (matches Coq: Definition webauthn_secure)
(define-fun webauthn_secure ((cfg WebAuthnConfig)) Bool
  true)

; riina_webauthn (matches Coq: Definition riina_webauthn)
(define-fun riina_webauthn () WebAuthnConfig
  (mk-web_authn_config 2 2 true 256 120000))

; session_token_secure (matches Coq: Definition session_token_secure)
(define-fun session_token_secure ((cfg SessionTokenConfig)) Bool
  true)

; riina_session_token (matches Coq: Definition riina_session_token)
(define-fun riina_session_token () SessionTokenConfig
  (mk-session_token_config 256 86400 true true true true 2))

; oauth2_secure (matches Coq: Definition oauth2_secure)
(define-fun oauth2_secure ((cfg OAuth2Config)) Bool
  true)

; riina_oauth2 (matches Coq: Definition riina_oauth2)
(define-fun riina_oauth2 () OAuth2Config
  (mk-o_auth2_config true true true true 256 30 true))

; oidc_secure (matches Coq: Definition oidc_secure)
(define-fun oidc_secure ((cfg OIDCConfig)) Bool
  true)

; riina_oidc (matches Coq: Definition riina_oidc)
(define-fun riina_oidc () OIDCConfig
  (mk-oidc_config (riina_oauth2) 2 300 true true))

; challenge_secure (matches Coq: Definition challenge_secure)
(define-fun challenge_secure ((cfg ChallengeConfig)) Bool
  true)

; riina_challenge (matches Coq: Definition riina_challenge)
(define-fun riina_challenge () ChallengeConfig
  (mk-challenge_config 256 60000 true true true))

; replay_prevention_secure (matches Coq: Definition replay_prevention_secure)
(define-fun replay_prevention_secure ((cfg NonceTracker)) Bool
  true)

; riina_nonce_tracker (matches Coq: Definition riina_nonce_tracker)
(define-fun riina_nonce_tracker () NonceTracker
  (mk-nonce_tracker 256 10000 60 true))

; password_secure (matches Coq: Definition password_secure)
(define-fun password_secure ((p PasswordSecurity)) Bool
  (and (pwd_bcrypt_argon p) (pwd_salt_unique p) (pwd_min_entropy p) (pwd_breach_check p)))

; mfa_secure (matches Coq: Definition mfa_secure)
(define-fun mfa_secure ((m MFASecurity)) Bool
  (and (mfa_totp_support m) (mfa_webauthn m) (mfa_backup_codes m) (mfa_recovery m)))

; session_secure (matches Coq: Definition session_secure)
(define-fun session_secure ((s SessionSecurity)) Bool
  (and (sess_secure_token s) (sess_rotation s) (sess_timeout s) (sess_binding s)))

; auth_complete (matches Coq: Definition auth_complete)
(define-fun auth_complete ((a AuthConfig)) Bool
  true)

; riina_pwd (matches Coq: Definition riina_pwd)
(define-fun riina_pwd () PasswordSecurity
  (mk-password_security true true true true))

; riina_mfa (matches Coq: Definition riina_mfa)
(define-fun riina_mfa () MFASecurity
  (mk-mfa_security true true true true))

; riina_session (matches Coq: Definition riina_session)
(define-fun riina_session () SessionSecurity
  (mk-session_security true true true true))

; riina_auth (matches Coq: Definition riina_auth)
(define-fun riina_auth () AuthConfig
  (mk-auth_config (riina_pwd) (riina_mfa) (riina_session)))

; andb_true_iff (matches Coq: Lemma andb_true_iff)
(assert (= true true)) ; andb_true_iff [untranslatable]

; andb3_true_iff (matches Coq: Lemma andb3_true_iff)
(assert (= true true)) ; andb3_true_iff [untranslatable]

; negb_true_iff (matches Coq: Lemma negb_true_iff)
(assert (= true true)) ; negb_true_iff [untranslatable]

; leb_le (matches Coq: Lemma leb_le)
(assert (= true true)) ; leb_le [untranslatable]

; ltb_lt (matches Coq: Lemma ltb_lt)
(assert (= true true)) ; ltb_lt [untranslatable]

; AUTH_001 (matches Coq: Theorem AUTH_001)
(assert (= (password_secure riina_pwd) true)) ; AUTH_001

; AUTH_002 (matches Coq: Theorem AUTH_002)
(assert (= (mfa_secure riina_mfa) true)) ; AUTH_002

; AUTH_003 (matches Coq: Theorem AUTH_003)
(assert (= (session_secure riina_session) true)) ; AUTH_003

; AUTH_004 (matches Coq: Theorem AUTH_004)
(assert (= (auth_complete riina_auth) true)) ; AUTH_004

; AUTH_005 (matches Coq: Theorem AUTH_005)
(assert (= (pwd_bcrypt_argon riina_pwd) true)) ; AUTH_005

; AUTH_006 (matches Coq: Theorem AUTH_006)
(assert (= (mfa_webauthn riina_mfa) true)) ; AUTH_006

; AUTH_007 (matches Coq: Theorem AUTH_007)
(assert (= (sess_secure_token riina_session) true)) ; AUTH_007

; AUTH_008 (matches Coq: Theorem AUTH_008)
(assert (= true true)) ; AUTH_008 [untranslatable]

; AUTH_009 (matches Coq: Theorem AUTH_009)
(assert (= true true)) ; AUTH_009 [untranslatable]

; AUTH_010 (matches Coq: Theorem AUTH_010)
(assert (= true true)) ; AUTH_010 [untranslatable]

; AUTH_011 (matches Coq: Theorem AUTH_011)
(assert (= true true)) ; AUTH_011 [untranslatable]

; AUTH_012 (matches Coq: Theorem AUTH_012)
(assert (= true true)) ; AUTH_012 [untranslatable]

; AUTH_013 (matches Coq: Theorem AUTH_013)
(assert (= true true)) ; AUTH_013 [untranslatable]

; AUTH_014 (matches Coq: Theorem AUTH_014)
(assert (= true true)) ; AUTH_014 [untranslatable]

; AUTH_015 (matches Coq: Theorem AUTH_015)
(assert (= true true)) ; AUTH_015 [untranslatable]

; AUTH_016 (matches Coq: Theorem AUTH_016)
(assert (= true true)) ; AUTH_016 [untranslatable]

; AUTH_017 (matches Coq: Theorem AUTH_017)
(assert (= true true)) ; AUTH_017 [untranslatable]

; AUTH_018 (matches Coq: Theorem AUTH_018)
(assert (= true true)) ; AUTH_018 [untranslatable]

; AUTH_019 (matches Coq: Theorem AUTH_019)
(assert (and (= (password_secure riina_pwd) true) (= (mfa_secure riina_mfa) true))) ; AUTH_019

; AUTH_020 (matches Coq: Theorem AUTH_020)
(assert (and (= (pwd_bcrypt_argon riina_pwd) true) (= (mfa_webauthn riina_mfa) true))) ; AUTH_020

; AUTH_021 (matches Coq: Theorem AUTH_021)
(assert (and (= (sess_secure_token riina_session) true) (= (sess_rotation riina_session) true))) ; AUTH_021

; AUTH_022 (matches Coq: Theorem AUTH_022)
(assert (= true true)) ; AUTH_022 [untranslatable]

; AUTH_023 (matches Coq: Theorem AUTH_023)
(assert (= true true)) ; AUTH_023 [untranslatable]

; AUTH_024 (matches Coq: Theorem AUTH_024)
(assert (= true true)) ; AUTH_024 [untranslatable]

; AUTH_025_complete (matches Coq: Theorem AUTH_025_complete)
(assert (= true true)) ; AUTH_025_complete [untranslatable]

; PBKDF2_001_riina_secure (matches Coq: Theorem PBKDF2_001_riina_secure)
(assert (= (pbkdf2_secure riina_pbkdf2) true)) ; PBKDF2_001_riina_secure

; PBKDF2_002_sufficient_iterations (matches Coq: Theorem PBKDF2_002_sufficient_iterations)
(assert (= true true)) ; PBKDF2_002_sufficient_iterations [untranslatable]

; PBKDF2_003_sufficient_salt (matches Coq: Theorem PBKDF2_003_sufficient_salt)
(assert (= true true)) ; PBKDF2_003_sufficient_salt [untranslatable]

; PBKDF2_004_sufficient_output (matches Coq: Theorem PBKDF2_004_sufficient_output)
(assert (= true true)) ; PBKDF2_004_sufficient_output [untranslatable]

; PBKDF2_005_approved_algorithm (matches Coq: Theorem PBKDF2_005_approved_algorithm)
(assert (= true true)) ; PBKDF2_005_approved_algorithm [untranslatable]

; PBKDF2_006_work_factor (matches Coq: Theorem PBKDF2_006_work_factor)
(assert (= true true)) ; PBKDF2_006_work_factor [untranslatable]

; ARGON2_001_riina_secure (matches Coq: Theorem ARGON2_001_riina_secure)
(assert (= (argon2_secure riina_argon2) true)) ; ARGON2_001_riina_secure

; ARGON2_002_sufficient_time (matches Coq: Theorem ARGON2_002_sufficient_time)
(assert (= true true)) ; ARGON2_002_sufficient_time [untranslatable]

; ARGON2_003_sufficient_memory (matches Coq: Theorem ARGON2_003_sufficient_memory)
(assert (= true true)) ; ARGON2_003_sufficient_memory [untranslatable]

; ARGON2_004_argon2id_variant (matches Coq: Theorem ARGON2_004_argon2id_variant)
(assert (= true true)) ; ARGON2_004_argon2id_variant [untranslatable]

; ARGON2_005_memory_hardness (matches Coq: Theorem ARGON2_005_memory_hardness)
(assert (= true true)) ; ARGON2_005_memory_hardness [untranslatable]

; ARGON2_006_parallelism (matches Coq: Theorem ARGON2_006_parallelism)
(assert (= true true)) ; ARGON2_006_parallelism [untranslatable]

; BCRYPT_001_riina_secure (matches Coq: Theorem BCRYPT_001_riina_secure)
(assert (= (bcrypt_secure riina_bcrypt) true)) ; BCRYPT_001_riina_secure

; BCRYPT_002_sufficient_cost (matches Coq: Theorem BCRYPT_002_sufficient_cost)
(assert (= true true)) ; BCRYPT_002_sufficient_cost [untranslatable]

; BCRYPT_003_fixed_salt (matches Coq: Theorem BCRYPT_003_fixed_salt)
(assert (= true true)) ; BCRYPT_003_fixed_salt [untranslatable]

; BCRYPT_004_fixed_output (matches Coq: Theorem BCRYPT_004_fixed_output)
(assert (= true true)) ; BCRYPT_004_fixed_output [untranslatable]

; BCRYPT_005_exponential_work (matches Coq: Theorem BCRYPT_005_exponential_work)
(assert (= true true)) ; BCRYPT_005_exponential_work [untranslatable]

; TOTP_001_riina_secure (matches Coq: Theorem TOTP_001_riina_secure)
(assert (= (totp_secure riina_totp) true)) ; TOTP_001_riina_secure

; TOTP_002_sufficient_secret (matches Coq: Theorem TOTP_002_sufficient_secret)
(assert (= true true)) ; TOTP_002_sufficient_secret [untranslatable]

; TOTP_003_sufficient_digits (matches Coq: Theorem TOTP_003_sufficient_digits)
(assert (= true true)) ; TOTP_003_sufficient_digits [untranslatable]

; TOTP_004_standard_period (matches Coq: Theorem TOTP_004_standard_period)
(assert (= true true)) ; TOTP_004_standard_period [untranslatable]

; TOTP_005_limited_drift (matches Coq: Theorem TOTP_005_limited_drift)
(assert (= true true)) ; TOTP_005_limited_drift [untranslatable]

; TOTP_006_brute_force_resistant (matches Coq: Theorem TOTP_006_brute_force_resistant)
(assert (= true true)) ; TOTP_006_brute_force_resistant [untranslatable]

; WEBAUTHN_001_riina_secure (matches Coq: Theorem WEBAUTHN_001_riina_secure)
(assert (= (webauthn_secure riina_webauthn) true)) ; WEBAUTHN_001_riina_secure

; WEBAUTHN_002_user_verification (matches Coq: Theorem WEBAUTHN_002_user_verification)
(assert (= true true)) ; WEBAUTHN_002_user_verification [untranslatable]

; WEBAUTHN_003_challenge_entropy (matches Coq: Theorem WEBAUTHN_003_challenge_entropy)
(assert (= true true)) ; WEBAUTHN_003_challenge_entropy [untranslatable]

; WEBAUTHN_004_timeout_range (matches Coq: Theorem WEBAUTHN_004_timeout_range)
(assert (= true true)) ; WEBAUTHN_004_timeout_range [untranslatable]

; WEBAUTHN_005_impersonation_prevention (matches Coq: Theorem WEBAUTHN_005_impersonation_prevention)
(assert (= true true)) ; WEBAUTHN_005_impersonation_prevention [untranslatable]

; SESSION_001_riina_secure (matches Coq: Theorem SESSION_001_riina_secure)
(assert (= (session_token_secure riina_session_token) true)) ; SESSION_001_riina_secure

; SESSION_002_sufficient_entropy (matches Coq: Theorem SESSION_002_sufficient_entropy)
(assert (= true true)) ; SESSION_002_sufficient_entropy [untranslatable]

; SESSION_003_rotation_enabled (matches Coq: Theorem SESSION_003_rotation_enabled)
(assert (= true true)) ; SESSION_003_rotation_enabled [untranslatable]

; SESSION_004_binding_enabled (matches Coq: Theorem SESSION_004_binding_enabled)
(assert (= true true)) ; SESSION_004_binding_enabled [untranslatable]

; SESSION_005_secure_flag (matches Coq: Theorem SESSION_005_secure_flag)
(assert (= true true)) ; SESSION_005_secure_flag [untranslatable]

; SESSION_006_httponly_flag (matches Coq: Theorem SESSION_006_httponly_flag)
(assert (= true true)) ; SESSION_006_httponly_flag [untranslatable]

; SESSION_007_samesite_protection (matches Coq: Theorem SESSION_007_samesite_protection)
(assert (= true true)) ; SESSION_007_samesite_protection [untranslatable]

; SESSION_008_guessing_resistant (matches Coq: Theorem SESSION_008_guessing_resistant)
(assert (= true true)) ; SESSION_008_guessing_resistant [untranslatable]

; OAUTH2_001_riina_secure (matches Coq: Theorem OAUTH2_001_riina_secure)
(assert (= (oauth2_secure riina_oauth2) true)) ; OAUTH2_001_riina_secure

; OAUTH2_002_pkce_required (matches Coq: Theorem OAUTH2_002_pkce_required)
(assert (= true true)) ; OAUTH2_002_pkce_required [untranslatable]

; OAUTH2_003_state_required (matches Coq: Theorem OAUTH2_003_state_required)
(assert (= true true)) ; OAUTH2_003_state_required [untranslatable]

; OAUTH2_004_code_entropy (matches Coq: Theorem OAUTH2_004_code_entropy)
(assert (= true true)) ; OAUTH2_004_code_entropy [untranslatable]

; OAUTH2_005_short_code_expiry (matches Coq: Theorem OAUTH2_005_short_code_expiry)
(assert (= true true)) ; OAUTH2_005_short_code_expiry [untranslatable]

; OAUTH2_006_refresh_rotation (matches Coq: Theorem OAUTH2_006_refresh_rotation)
(assert (= true true)) ; OAUTH2_006_refresh_rotation [untranslatable]

; OAUTH2_007_code_interception_prevention (matches Coq: Theorem OAUTH2_007_code_interception_prevention)
(assert (= true true)) ; OAUTH2_007_code_interception_prevention [untranslatable]

; OIDC_001_riina_secure (matches Coq: Theorem OIDC_001_riina_secure)
(assert (= (oidc_secure riina_oidc) true)) ; OIDC_001_riina_secure

; OIDC_002_secure_base (matches Coq: Theorem OIDC_002_secure_base)
(assert (= true true)) ; OIDC_002_secure_base [untranslatable]

; OIDC_003_strong_signing (matches Coq: Theorem OIDC_003_strong_signing)
(assert (= true true)) ; OIDC_003_strong_signing [untranslatable]

; OIDC_004_short_id_expiry (matches Coq: Theorem OIDC_004_short_id_expiry)
(assert (= true true)) ; OIDC_004_short_id_expiry [untranslatable]

; OIDC_005_claims_verified (matches Coq: Theorem OIDC_005_claims_verified)
(assert (= true true)) ; OIDC_005_claims_verified [untranslatable]

; OIDC_006_inherits_pkce (matches Coq: Theorem OIDC_006_inherits_pkce)
(assert (= true true)) ; OIDC_006_inherits_pkce [untranslatable]

; CHALLENGE_001_riina_secure (matches Coq: Theorem CHALLENGE_001_riina_secure)
(assert (= (challenge_secure riina_challenge) true)) ; CHALLENGE_001_riina_secure

; CHALLENGE_002_sufficient_entropy (matches Coq: Theorem CHALLENGE_002_sufficient_entropy)
(assert (= true true)) ; CHALLENGE_002_sufficient_entropy [untranslatable]

; CHALLENGE_003_short_expiry (matches Coq: Theorem CHALLENGE_003_short_expiry)
(assert (= true true)) ; CHALLENGE_003_short_expiry [untranslatable]

; CHALLENGE_004_single_use (matches Coq: Theorem CHALLENGE_004_single_use)
(assert (= true true)) ; CHALLENGE_004_single_use [untranslatable]

; CHALLENGE_005_session_bound (matches Coq: Theorem CHALLENGE_005_session_bound)
(assert (= true true)) ; CHALLENGE_005_session_bound [untranslatable]

; CHALLENGE_006_guessing_resistant (matches Coq: Theorem CHALLENGE_006_guessing_resistant)
(assert (= true true)) ; CHALLENGE_006_guessing_resistant [untranslatable]

; CHALLENGE_007_replay_prevention (matches Coq: Theorem CHALLENGE_007_replay_prevention)
(assert (= true true)) ; CHALLENGE_007_replay_prevention [untranslatable]

; REPLAY_001_riina_secure (matches Coq: Theorem REPLAY_001_riina_secure)
(assert (= (replay_prevention_secure riina_nonce_tracker) true)) ; REPLAY_001_riina_secure

; REPLAY_002_sufficient_nonce (matches Coq: Theorem REPLAY_002_sufficient_nonce)
(assert (= true true)) ; REPLAY_002_sufficient_nonce [untranslatable]

; REPLAY_003_sufficient_window (matches Coq: Theorem REPLAY_003_sufficient_window)
(assert (= true true)) ; REPLAY_003_sufficient_window [untranslatable]

; REPLAY_004_bounded_timestamp (matches Coq: Theorem REPLAY_004_bounded_timestamp)
(assert (= true true)) ; REPLAY_004_bounded_timestamp [untranslatable]

; REPLAY_005_window_prevents_replay (matches Coq: Theorem REPLAY_005_window_prevents_replay)
(assert (= true true)) ; REPLAY_005_window_prevents_replay [untranslatable]

; REPLAY_006_limited_attack_window (matches Coq: Theorem REPLAY_006_limited_attack_window)
(assert (= true true)) ; REPLAY_006_limited_attack_window [untranslatable]

; COMPOSITE_001_password_hashing_secure (matches Coq: Theorem COMPOSITE_001_password_hashing_secure)
(assert (and (= (pbkdf2_secure riina_pbkdf2) true) (= (argon2_secure riina_argon2) true) (= (bcrypt_secure riina_bcrypt) true))) ; COMPOSITE_001_password_hashing_secure

; COMPOSITE_002_mfa_complete (matches Coq: Theorem COMPOSITE_002_mfa_complete)
(assert (and (= (totp_secure riina_totp) true) (= (webauthn_secure riina_webauthn) true))) ; COMPOSITE_002_mfa_complete

; COMPOSITE_003_session_complete (matches Coq: Theorem COMPOSITE_003_session_complete)
(assert (and (= (session_token_secure riina_session_token) true) (= (oauth2_secure riina_oauth2) true) (= (oidc_secure riina_oidc) true))) ; COMPOSITE_003_session_complete

; COMPOSITE_004_challenge_complete (matches Coq: Theorem COMPOSITE_004_challenge_complete)
(assert (and (= (challenge_secure riina_challenge) true) (= (replay_prevention_secure riina_nonce_tracker) true))) ; COMPOSITE_004_challenge_complete

; COMPOSITE_005_riina_auth_complete (matches Coq: Theorem COMPOSITE_005_riina_auth_complete)
(assert (and (= (auth_complete riina_auth) true) (= (pbkdf2_secure riina_pbkdf2) true) (= (argon2_secure riina_argon2) true) (= (bcrypt_secure riina_bcrypt) true) (= (totp_secure riina_totp) true) (= (webauthn_secure riina_webauthn) true) (= (session_token_secure riina_session_token) true) (= (oauth2_secure riina_oauth2) true) (= (oidc_secure riina_oidc) true) (= (challenge_secure riina_challenge) true) (= (replay_prevention_secure riina_nonce_tracker) true))) ; COMPOSITE_005_riina_auth_complete

; COMPOSITE_006_auth_implies_all (matches Coq: Theorem COMPOSITE_006_auth_implies_all)
(assert (= true true)) ; COMPOSITE_006_auth_implies_all [untranslatable]

; TOKEN_001_valid_not_expired (matches Coq: Theorem TOKEN_001_valid_not_expired)
(assert (= true true)) ; TOKEN_001_valid_not_expired [untranslatable]

; TOKEN_002_valid_not_invalid (matches Coq: Theorem TOKEN_002_valid_not_invalid)
(assert (= true true)) ; TOKEN_002_valid_not_invalid [untranslatable]

; TOKEN_003_valid_not_revoked (matches Coq: Theorem TOKEN_003_valid_not_revoked)
(assert (= true true)) ; TOKEN_003_valid_not_revoked [untranslatable]

; TOKEN_004_expired_not_valid (matches Coq: Theorem TOKEN_004_expired_not_valid)
(assert (= true true)) ; TOKEN_004_expired_not_valid [untranslatable]

; Verify all assertions are satisfiable
(check-sat)
(exit)
